n = 16;
values = 12;

puzzle =
[|
  -1,  -1,  -1,  -1,   -1,  -1,  7,  8,   9, 10, 11, 12,  -1, -1, -1, -1 |
  -1,  -1,  -1,  -1,   -1, -1, -1, -1,  -1, -1, -1, -1,   -1,  -1,  -1,  -1 |
  9, 10, -1, 12,  -1, -1, -1, -1,   1,  2,  3,  4,   5,  6,  7,  8 |
  -1, -1, -1, -1,   1,  2,  3,  4,   5,  6,  7,  8,   9, 10, 11, 12 |

  2,  1,  -1,  -1,   6,  5,  8,  7,  10,  9, 12, 11,  -1, -1, -1, -1 |
  6,  5,  8,  7,  10,  9, 12, -1,  -1, -1, -1, -1,   2,  1,  4,  3 |
  10,  9, 12, 11,  -1, -1, -1, -1,   -1,  -1,  -1,  -1,   6,  5,  8,  7 |
  -1, -1, -1, -1,   2,  1,  4,  3,   6,  5,  -1,  7,  -1,  -1, -1, 11 |

  3,  4,  1,  2,   -1,  -1,  -1,  6,  -1, -1,  9, 10,  -1, -1, -1, -1 |
  7,  8,  5,  6,  11, 12,  -1, 10,  -1, -1, -1, -1,   3,  4,  1,  2 |
  11, 12,  9, 10,  -1, -1, -1, -1,   3,  -1,  1,  2,   7,  8,  5,  6 |
  -1, -1, -1, -1,   3,  4,  -1,  2,   7,  -1,  5,  6,  11, 12,  9, 10 |

  4,  3,  2,  1,   -1,  7,  -1,  5,  12, -1, -1,  -1,  -1, -1, -1, -1 |
  8,  7,  6,  5,  12, 11, -1,  9,  -1, -1, -1, -1,   4,  3,  2,  1 |
  12, -1, -1,  -1,  -1, -1, -1, -1,   -1,  -1,  -1,  1,   8,  7,  6,  5 |
  -1, -1, -1, -1,   4,  3,  -1,  1,   -1,  -1,  -1,  -1,  -1, 11, 10,  9 |
|];






